<<<<<<< HEAD
=======
p cnf 20 11
-3 -5 0
3 5 0
-1 -6 0
1 6 0
1 -7 0
2 -7 0
-1 -2 7 0
3 -8 0
5 -8 0
-3 -5 8 0
6 -9 0
4 -9 0
-6 -4 9 0
-7 10 0
-8 10 0
7 8 -10 0
-10 11 0
-9 11 0
10 9 -11 0
11 0
-11 -1 -2 -4 -7 -3 -10 6 9 5 8 0
-11 -1 -2 -7 -3 -10 6 9 4 5 8 0
-11 -1 -2 -7 -5 -10 6 9 3 8 0
-11 -2 -6 -3 -4 -9 1 7 5 8 10 0
-11 -6 -2 -5 -4 -9 1 7 3 8 10 0
-11 -6 -3 -4 -9 1 7 2 5 8 10 0
-11 -6 -5 -4 -9 1 7 2 3 8 10 0
>>>>>>> 82d8979896a15fb61727c6ff03c8b5cee6a56af5
